experiment/data/lkh-res/Vrp-Set-X-n223/Vrp-Set-X-n223-lkh/0.lkh1.vrp
NAME : 0
COMMENT : CVRP Instance
TYPE : CVRP
DIMENSION : 223
EDGE_WEIGHT_TYPE : EUC_2D
CAPACITY : 37
NODE_COORD_SECTION
1	28400	16700
2	600	71100
3	87400	74600
4	48300	89400
5	73300	18900
6	33600	2900
7	48800	68400
8	82500	90300
9	9800	41200
10	20600	30600
11	49700	64100
12	49900	74500
13	48100	4000
14	50000	39000
15	85100	26800
16	5100	27800
17	80500	79600
18	55400	77100
19	57600	98400
20	73400	25100
21	32500	41400
22	65800	8100
23	27900	46700
24	100000	80400
25	12400	14800
26	55400	59400
27	64500	16800
28	400	96500
29	61400	26700
30	93900	71900
31	93500	80000
32	10900	15400
33	3100	55400
34	96000	51200
35	48900	84000
36	37700	68400
37	94500	80800
38	72000	16500
39	22600	3400
40	7300	25500
41	74800	34400
42	77400	51400
43	14300	89300
44	16800	46100
45	16400	49300
46	63100	53300
47	81500	19100
48	83300	28400
49	74600	10000
50	25200	83900
51	89400	47200
52	94400	59700
53	37100	2800
54	55200	18600
55	61000	54100
56	57800	66500
57	74900	65500
58	89800	97400
59	27400	97200
60	52000	64200
61	91400	37300
62	61000	73800
63	77300	60200
64	75200	7400
65	72900	9000
66	46400	65800
67	7000	3600
68	96400	39700
69	38800	73200
70	18500	5100
71	71200	14400
72	4500	43700
73	91000	73800
74	95600	87900
75	31800	56000
76	59200	91300
77	64200	56400
78	90700	24000
79	8800	18600
80	39900	93100
81	76300	18000
82	62600	87600
83	30200	68900
84	97000	49000
85	77500	57400
86	65300	66700
87	81300	99900
88	500	98000
89	1000	24900
90	98000	13600
91	55700	81600
92	91500	68000
93	13100	72200
94	55300	94600
95	4500	10100
96	30600	26000
97	62700	2600
98	77100	39800
99	86900	58500
100	49300	28200
101	31200	21200
102	98500	93900
103	19400	26200
104	99200	69800
105	83400	84400
106	100	65100
107	27100	89300
108	2000	34900
109	16300	50300
110	57900	76100
111	92300	50200
112	200	46900
113	10300	28400
114	92800	13200
115	5100	88300
116	6300	18100
117	78400	30000
118	7100	86900
119	82600	22200
120	5000	84500
121	3600	5100
122	23100	8200
123	99900	16600
124	5700	7900
125	6200	27200
126	2200	27300
127	10600	89700
128	80500	26700
129	95000	10400
130	15000	79300
131	10600	12900
132	21200	59000
133	32700	11400
134	700	37200
135	64600	21900
136	100	8000
137	25900	28200
138	900	85800
139	96100	24100
140	97200	4600
141	69200	29800
142	4700	94400
143	98100	9900
144	4800	87600
145	80100	27200
146	7200	18500
147	64600	24200
148	96600	12400
149	18900	38700
150	11900	29400
151	3100	33900
152	93300	10000
153	73000	18800
154	5700	14300
155	9300	75900
156	82400	25900
157	92400	23700
158	5700	33800
159	3200	83600
160	8300	18900
161	5100	21700
162	78000	31600
163	1000	12500
164	97600	17200
165	30500	61500
166	91400	19000
167	11100	27100
168	34500	76300
169	12700	97900
170	91200	5800
171	5300	95000
172	900	82300
173	75100	29500
174	13400	31700
175	88900	18300
176	12800	32400
177	9800	29300
178	17200	21900
179	93000	7800
180	73900	33100
181	16000	97000
182	17600	5700
183	81400	17900
184	87200	10100
185	2700	35900
186	13500	21100
187	96900	19500
188	15400	98800
189	77600	14300
190	11700	95300
191	85100	12900
192	3300	18100
193	71000	17300
194	11100	27000
195	87300	11300
196	10500	22500
197	5300	43800
198	8200	22800
199	93300	31300
200	91300	12200
201	6400	89800
202	5300	19900
203	14700	28800
204	1000	81100
205	3700	79900
206	83700	21400
207	75200	30200
208	4200	30000
209	80400	6400
210	12300	27300
211	48900	20800
212	68300	39800
213	87400	16200
214	60800	54800
215	78800	30100
216	5400	33500
217	22100	11700
218	84800	8000
219	16000	83500
220	96800	6400
221	6500	85200
222	76900	22600
223	13900	84300
DEMAND_SECTION
1	0
2	6
3	6
4	9
5	2
6	4
7	10
8	2
9	3
10	3
11	1
12	4
13	3
14	8
15	6
16	4
17	4
18	6
19	3
20	5
21	10
22	7
23	3
24	8
25	9
26	2
27	2
28	9
29	2
30	2
31	1
32	2
33	9
34	9
35	1
36	9
37	5
38	9
39	8
40	6
41	2
42	10
43	3
44	10
45	10
46	1
47	8
48	1
49	7
50	1
51	9
52	3
53	5
54	5
55	5
56	9
57	2
58	2
59	2
60	2
61	5
62	7
63	10
64	9
65	10
66	4
67	4
68	9
69	1
70	5
71	1
72	5
73	8
74	3
75	9
76	6
77	10
78	6
79	3
80	9
81	8
82	9
83	9
84	3
85	6
86	10
87	1
88	2
89	4
90	4
91	7
92	3
93	8
94	5
95	5
96	8
97	7
98	3
99	6
100	3
101	5
102	2
103	6
104	1
105	7
106	5
107	1
108	7
109	7
110	3
111	8
112	1
113	4
114	3
115	4
116	1
117	6
118	9
119	7
120	6
121	5
122	1
123	9
124	6
125	6
126	2
127	4
128	9
129	9
130	9
131	9
132	8
133	10
134	7
135	10
136	3
137	10
138	9
139	10
140	8
141	6
142	8
143	10
144	4
145	4
146	5
147	5
148	2
149	10
150	9
151	1
152	1
153	5
154	7
155	8
156	7
157	2
158	7
159	3
160	3
161	5
162	6
163	4
164	9
165	1
166	8
167	9
168	1
169	6
170	7
171	8
172	5
173	10
174	9
175	5
176	1
177	8
178	9
179	4
180	1
181	1
182	10
183	7
184	8
185	2
186	4
187	8
188	1
189	10
190	7
191	9
192	10
193	4
194	5
195	3
196	10
197	1
198	2
199	10
200	7
201	4
202	3
203	7
204	4
205	3
206	5
207	10
208	1
209	5
210	7
211	3
212	3
213	4
214	7
215	4
216	7
217	5
218	4
219	9
220	4
221	5
222	10
223	7
DEPOT_SECTION
1
-1
EOF
