experiment/data/lkh-res/Vrp-Set-X-n223/Vrp-Set-X-n223-lkh/0.lkh1.tour
NAME : 0.4096752.tour
COMMENT : Length = 4096752
COMMENT : Found by LKH-3 [Keld Helsgaun] Tue Apr  9 04:18:00 2024
TYPE : TOUR
DIMENSION : 256
TOUR_SECTION
1
101
14
29
147
135
54
231
190
169
188
181
59
80
4
35
69
251
152
129
143
90
148
114
200
71
228
178
196
186
217
224
41
61
68
84
34
51
225
93
130
223
219
50
107
168
165
233
64
209
170
140
220
179
255
173
207
117
215
162
180
249
111
52
104
30
73
3
92
99
253
175
166
157
139
199
48
238
26
56
86
77
55
230
103
176
9
197
72
112
33
132
23
234
17
105
8
87
58
102
74
24
37
31
57
237
25
32
154
192
116
146
79
244
60
91
82
76
19
94
12
11
239
131
124
95
163
136
121
67
240
203
174
10
137
96
226
141
145
128
15
156
20
254
149
44
45
109
252
120
144
28
88
171
142
236
66
7
18
110
62
214
245
194
208
151
108
134
185
216
158
241
27
193
191
195
184
218
49
232
6
53
13
97
65
22
243
213
164
123
187
78
229
222
119
206
47
183
248
211
153
5
81
189
38
246
43
127
201
115
118
221
155
235
46
63
85
42
98
212
100
242
210
167
113
177
150
247
160
202
161
89
126
16
125
40
198
250
21
36
83
75
256
205
159
138
172
204
2
106
227
122
182
70
39
133
-1
EOF
